
  32    4
  10   10   10   10

   0   0   0   0   0  22 2 4 8 13 14 15 16 17 18 19 20 21 22 23 24 25 26 27 28 29 30 31 
   8   1   1   1   0   1 3 
   6   0   6   5   1   2 10 5 
   6   0   3   4   4   2 12 7 
   9   7   7   0   7   1 6 
   8   1   0   3   2   1 7 
   9   0   3   3   5   1 9 
   2   5   6   1   0   1 11 
   2   4   3   7   0   1 32
   2   3   4   0   7   1 32
   4   3   4   0   3   1 32
   6   3   4   5   0   1 32
   6   2   0   2   6   1 32
   4   0   7   8   2   1 32
   6   3   2   6   0   1 32
   1   2   2   3   0   1 32
   4   6   4   3   0   1 32
   2   7   6   0   4   1 32
   1   0   1   5   3   1 32
   3   0   4   4   6   1 32
   5   5   0   3   4   1 32
   4   8   0   2   2   1 32
   7   0   6   4   3   1 32
   6   5   0   4   5   1 32
   8   6   4   2   0   1 32
   4   2   0   6   5   1 32
  10   5   0   9   2   1 32
  10   4   0   2   6   1 32
   1   4   3   0   3   1 32
   1   3   0   4   4   1 32
   7   3   4   4   0   1 32
   0   0   0   0   0   0 
